instances/knapsack/discrete_knapsack_uncertainty/knapsack_80_8.lp
\ Model knapsack_80_8
\ LP format - for model browsing. Use MPS format to capture full model detail.
\ Signature: 0xf86d0bbf74a39a5e
Minimize
  - x[0] - 90 x[1] - 3 x[2] - 87 x[3] - 97 x[4] - 80 x[5] - 53 x[6]
   - 71 x[7] - 66 x[8] - 90 x[9] - 50 x[10] - 62 x[11] - 34 x[12]
   - 25 x[13] - 38 x[14] - 71 x[15] - 17 x[16] - 33 x[17] - 14 x[18]
   - 25 x[19] - 29 x[20] - 86 x[21] - 71 x[22] - 47 x[23] - 44 x[24]
   - 22 x[25] - 15 x[26] - 83 x[27] - 61 x[28] - 48 x[29] - 72 x[30]
   - 71 x[31] - 7 x[32] - 2 x[33] - 39 x[34] - 92 x[35] - 72 x[36]
   - 54 x[37] - 90 x[38] - 27 x[39] - 71 x[40] - 21 x[41] - 37 x[42]
   - 34 x[43] - 98 x[44] - 90 x[45] - 32 x[46] - 32 x[47] - 16 x[48]
   - 65 x[49] - 62 x[50] - 58 x[51] - 10 x[52] - 28 x[53] - 55 x[54]
   - 53 x[55] - 98 x[56] - 63 x[57] - 43 x[58] - 6 x[59] - 39 x[60]
   - 57 x[61] - 53 x[62] - 89 x[63] - 30 x[64] - 92 x[65] - 16 x[66]
   - 25 x[67] - 72 x[68] - 65 x[69] - 100 x[70] - 50 x[71] - 64 x[72]
   - 97 x[73] - 94 x[74] - 97 x[75] - 45 x[76] - 60 x[77] - 7 x[78]
   - 79 x[79]
Subject To
 primal_upper: 43 x[0] + 11 x[1] + 9 x[2] + 2 x[3] + 71 x[4] + 89 x[5]
   + 88 x[6] + 35 x[7] + 40 x[8] + 73 x[9] + 63 x[10] + 78 x[11] + 91 x[12]
   + 15 x[13] + 100 x[14] + 52 x[15] + 52 x[16] + 27 x[17] + 20 x[18]
   + 9 x[19] + 32 x[20] + 59 x[21] + 71 x[22] + 30 x[23] + 4 x[24]
   + 43 x[25] + 65 x[26] + 3 x[27] + 33 x[28] + 50 x[29] + 37 x[30]
   + 3 x[31] + 75 x[32] + 40 x[33] + 3 x[34] + 48 x[35] + 19 x[36]
   + 60 x[37] + 87 x[38] + 66 x[39] + 78 x[40] + 57 x[41] + 61 x[42]
   + 25 x[43] + 6 x[44] + 38 x[45] + 25 x[46] + 77 x[47] + 98 x[48]
   + 59 x[49] + 22 x[50] + 47 x[51] + 68 x[52] + 39 x[53] + 68 x[54]
   + 71 x[55] + 20 x[56] + 98 x[57] + 75 x[58] + 85 x[59] + 8 x[60]
   + 26 x[61] + 19 x[62] + 82 x[63] + 43 x[64] + 27 x[65] + 48 x[66]
   + 90 x[67] + 39 x[68] + 17 x[69] + 93 x[70] + 57 x[71] + 93 x[72]
   + 62 x[73] + 7 x[74] + 100 x[75] + 10 x[76] + 94 x[77] + 8 x[78]
   + 78 x[79] + 4.3 r[0] + 1.1 r[1] + 0.9 r[2] + 0.2 r[3] + 7.1 r[4]
   + 8.9 r[5] + 8.8 r[6] + 3.5 r[7] + 4 r[8] + 7.3 r[9] + 6.3 r[10]
   + 7.8 r[11] + 9.1 r[12] + 1.5 r[13] + 10 r[14] + 5.2 r[15] + 5.2 r[16]
   + 2.7 r[17] + 2 r[18] + 0.9 r[19] + 3.2 r[20] + 5.9 r[21] + 7.1 r[22]
   + 3 r[23] + 0.4 r[24] + 4.3 r[25] + 6.5 r[26] + 0.3 r[27] + 3.3 r[28]
   + 5 r[29] + 3.7 r[30] + 0.3 r[31] + 7.5 r[32] + 4 r[33] + 0.3 r[34]
   + 4.8 r[35] + 1.9 r[36] + 6 r[37] + 8.7 r[38] + 6.6 r[39] + 7.8 r[40]
   + 5.7 r[41] + 6.1 r[42] + 2.5 r[43] + 0.6 r[44] + 3.8 r[45] + 2.5 r[46]
   + 7.7 r[47] + 9.8 r[48] + 5.9 r[49] + 2.2 r[50] + 4.7 r[51] + 6.8 r[52]
   + 3.9 r[53] + 6.8 r[54] + 7.1 r[55] + 2 r[56] + 9.8 r[57] + 7.5 r[58]
   + 8.5 r[59] + 0.8 r[60] + 2.6 r[61] + 1.9 r[62] + 8.2 r[63] + 4.3 r[64]
   + 2.7 r[65] + 4.8 r[66] + 9 r[67] + 3.9 r[68] + 1.7 r[69] + 9.3 r[70]
   + 5.7 r[71] + 9.3 r[72] + 6.2 r[73] + 0.7 r[74] + 10 r[75] + r[76]
   + 9.4 r[77] + 0.8 r[78] + 7.8 r[79] <= 372
 primal_lower: 3.765976417997937 x[0] + 3.386654762258867 x[1]
   + 1.183798266063399 x[2] + 1.328623800686102 x[3]
   + 3.205238731596596 x[4] + 3.621327401525094 x[5]
   + 2.871726930266475 x[6] + 3.37380054269572 x[7]
   + 3.130863368526331 x[8] + 4.500660365427435 x[9]
   + 1.846579021636249 x[10] + 3.704657612811015 x[11]
   + 1.83213742624663 x[12] + 1.288112023886255 x[13]
   + 1.92692420699866 x[14] + 4.069786893849472 x[15]
   + 3.305797148579141 x[16] + 1.972445442508364 x[17]
   + 3.411944778011507 x[18] + 4.732713933485608 x[19]
   + 4.355201318756906 x[20] + 4.519097040515486 x[21]
   + 3.908032439314357 x[22] + 1.825962461003469 x[23]
   + 1.676518891630653 x[24] + 3.184981988775908 x[25]
   + 2.057814672772735 x[26] + 0.6663739743373817 x[27]
   + 0.3200675395951015 x[28] + 3.736445583532657 x[29]
   + 1.475549598145532 x[30] + 3.390480178453431 x[31]
   + 2.621454664052815 x[32] + 4.225351699614023 x[33]
   + 3.162431682262793 x[34] + 4.01863968090038 x[35]
   + 0.9267016749813805 x[36] + 0.6659337523372381 x[37]
   + 1.264051190858039 x[38] + 2.814672341686263 x[39]
   + 1.502294315576871 x[40] + 4.797324112773861 x[41]
   + 4.279104371282812 x[42] + 4.225938052145776 x[43]
   + 0.3952688417897438 x[44] + 3.663847690925652 x[45]
   + 2.779674387811106 x[46] + 3.398196474156996 x[47]
   + 1.612762442699581 x[48] + 1.043275414954814 x[49]
   + 0.4733481345074453 x[50] + 0.0305258122793506 x[51]
   + 3.947711576625805 x[52] + 2.215379172413581 x[53]
   + 0.3978667077019005 x[54] + 1.119652583582366 x[55]
   + 0.5315376138527939 x[56] + 1.915006342682321 x[57]
   + 1.984562896128206 x[58] + 3.118165271964557 x[59]
   + 2.892595239882089 x[60] + 1.78266434824403 x[61]
   + 2.125158326180638 x[62] + 1.874785918022071 x[63]
   + 0.3308329767155234 x[64] + 4.204666135807159 x[65]
   + 3.105795406750217 x[66] + 1.515181832695206 x[67]
   + 1.639940035585079 x[68] + 0.5981610788784358 x[69]
   + 4.449924210498595 x[70] + 2.070880772775915 x[71]
   + 0.1719952840267391 x[72] + 0.180125835096837 x[73]
   + 4.729697636426838 x[74] + 1.986207454187036 x[75]
   + 2.122235366229162 x[76] + 4.003680496372759 x[77]
   + 4.548415409566774 x[78] + 3.353899770824341 x[79] + 11 u[0] + 95 u[1]
   + 81 u[2] + 26 u[3] + 31 u[4] + 5 u[5] + 4 u[6] + 15 u[7] + 52 u[8]
   + 77 u[9] + 79 u[10] + 38 u[11] + 83 u[12] + 79 u[13] + 80 u[14]
   + 24 u[15] + 60 u[16] + 31 u[17] + 4 u[18] + 21 u[19] + 36 u[20]
   + 67 u[21] + 15 u[22] + 6 u[23] + 60 u[24] + 59 u[25] + 61 u[26]
   + 99 u[27] + 25 u[28] + 82 u[29] + 13 u[30] + 43 u[31] + 63 u[32]
   + 64 u[33] + 63 u[34] + 24 u[35] + 11 u[36] + 48 u[37] + 71 u[38]
   + 82 u[39] + 10 u[40] + 77 u[41] + 97 u[42] + 5 u[43] + 66 u[44]
   + 14 u[45] + 33 u[46] + 13 u[47] + 98 u[48] + 31 u[49] + 42 u[50]
   + 67 u[51] + 92 u[52] + 39 u[53] + 56 u[54] + 15 u[55] + 64 u[56]
   + 42 u[57] + 59 u[58] + 93 u[59] + 60 u[60] + 38 u[61] + 79 u[62]
   + 2 u[63] + 31 u[64] + 51 u[65] + 76 u[66] + 70 u[67] + 47 u[68]
   + 33 u[69] + 97 u[70] + 97 u[71] + 69 u[72] + 10 u[73] + 75 u[74]
   + 72 u[75] + 62 u[76] + 30 u[77] + 76 u[78] + 82 u[79] <= 43408
 mccormick1[0]: - u[0] + r[0] <= 0
 mccormick1[1]: - u[1] + r[1] <= 0
 mccormick1[2]: - u[2] + r[2] <= 0
 mccormick1[3]: - u[3] + r[3] <= 0
 mccormick1[4]: - u[4] + r[4] <= 0
 mccormick1[5]: - u[5] + r[5] <= 0
 mccormick1[6]: - u[6] + r[6] <= 0
 mccormick1[7]: - u[7] + r[7] <= 0
 mccormick1[8]: - u[8] + r[8] <= 0
 mccormick1[9]: - u[9] + r[9] <= 0
 mccormick1[10]: - u[10] + r[10] <= 0
 mccormick1[11]: - u[11] + r[11] <= 0
 mccormick1[12]: - u[12] + r[12] <= 0
 mccormick1[13]: - u[13] + r[13] <= 0
 mccormick1[14]: - u[14] + r[14] <= 0
 mccormick1[15]: - u[15] + r[15] <= 0
 mccormick1[16]: - u[16] + r[16] <= 0
 mccormick1[17]: - u[17] + r[17] <= 0
 mccormick1[18]: - u[18] + r[18] <= 0
 mccormick1[19]: - u[19] + r[19] <= 0
 mccormick1[20]: - u[20] + r[20] <= 0
 mccormick1[21]: - u[21] + r[21] <= 0
 mccormick1[22]: - u[22] + r[22] <= 0
 mccormick1[23]: - u[23] + r[23] <= 0
 mccormick1[24]: - u[24] + r[24] <= 0
 mccormick1[25]: - u[25] + r[25] <= 0
 mccormick1[26]: - u[26] + r[26] <= 0
 mccormick1[27]: - u[27] + r[27] <= 0
 mccormick1[28]: - u[28] + r[28] <= 0
 mccormick1[29]: - u[29] + r[29] <= 0
 mccormick1[30]: - u[30] + r[30] <= 0
 mccormick1[31]: - u[31] + r[31] <= 0
 mccormick1[32]: - u[32] + r[32] <= 0
 mccormick1[33]: - u[33] + r[33] <= 0
 mccormick1[34]: - u[34] + r[34] <= 0
 mccormick1[35]: - u[35] + r[35] <= 0
 mccormick1[36]: - u[36] + r[36] <= 0
 mccormick1[37]: - u[37] + r[37] <= 0
 mccormick1[38]: - u[38] + r[38] <= 0
 mccormick1[39]: - u[39] + r[39] <= 0
 mccormick1[40]: - u[40] + r[40] <= 0
 mccormick1[41]: - u[41] + r[41] <= 0
 mccormick1[42]: - u[42] + r[42] <= 0
 mccormick1[43]: - u[43] + r[43] <= 0
 mccormick1[44]: - u[44] + r[44] <= 0
 mccormick1[45]: - u[45] + r[45] <= 0
 mccormick1[46]: - u[46] + r[46] <= 0
 mccormick1[47]: - u[47] + r[47] <= 0
 mccormick1[48]: - u[48] + r[48] <= 0
 mccormick1[49]: - u[49] + r[49] <= 0
 mccormick1[50]: - u[50] + r[50] <= 0
 mccormick1[51]: - u[51] + r[51] <= 0
 mccormick1[52]: - u[52] + r[52] <= 0
 mccormick1[53]: - u[53] + r[53] <= 0
 mccormick1[54]: - u[54] + r[54] <= 0
 mccormick1[55]: - u[55] + r[55] <= 0
 mccormick1[56]: - u[56] + r[56] <= 0
 mccormick1[57]: - u[57] + r[57] <= 0
 mccormick1[58]: - u[58] + r[58] <= 0
 mccormick1[59]: - u[59] + r[59] <= 0
 mccormick1[60]: - u[60] + r[60] <= 0
 mccormick1[61]: - u[61] + r[61] <= 0
 mccormick1[62]: - u[62] + r[62] <= 0
 mccormick1[63]: - u[63] + r[63] <= 0
 mccormick1[64]: - u[64] + r[64] <= 0
 mccormick1[65]: - u[65] + r[65] <= 0
 mccormick1[66]: - u[66] + r[66] <= 0
 mccormick1[67]: - u[67] + r[67] <= 0
 mccormick1[68]: - u[68] + r[68] <= 0
 mccormick1[69]: - u[69] + r[69] <= 0
 mccormick1[70]: - u[70] + r[70] <= 0
 mccormick1[71]: - u[71] + r[71] <= 0
 mccormick1[72]: - u[72] + r[72] <= 0
 mccormick1[73]: - u[73] + r[73] <= 0
 mccormick1[74]: - u[74] + r[74] <= 0
 mccormick1[75]: - u[75] + r[75] <= 0
 mccormick1[76]: - u[76] + r[76] <= 0
 mccormick1[77]: - u[77] + r[77] <= 0
 mccormick1[78]: - u[78] + r[78] <= 0
 mccormick1[79]: - u[79] + r[79] <= 0
 mccormick2[0]: - x[0] + r[0] <= 0
 mccormick2[1]: - x[1] + r[1] <= 0
 mccormick2[2]: - x[2] + r[2] <= 0
 mccormick2[3]: - x[3] + r[3] <= 0
 mccormick2[4]: - x[4] + r[4] <= 0
 mccormick2[5]: - x[5] + r[5] <= 0
 mccormick2[6]: - x[6] + r[6] <= 0
 mccormick2[7]: - x[7] + r[7] <= 0
 mccormick2[8]: - x[8] + r[8] <= 0
 mccormick2[9]: - x[9] + r[9] <= 0
 mccormick2[10]: - x[10] + r[10] <= 0
 mccormick2[11]: - x[11] + r[11] <= 0
 mccormick2[12]: - x[12] + r[12] <= 0
 mccormick2[13]: - x[13] + r[13] <= 0
 mccormick2[14]: - x[14] + r[14] <= 0
 mccormick2[15]: - x[15] + r[15] <= 0
 mccormick2[16]: - x[16] + r[16] <= 0
 mccormick2[17]: - x[17] + r[17] <= 0
 mccormick2[18]: - x[18] + r[18] <= 0
 mccormick2[19]: - x[19] + r[19] <= 0
 mccormick2[20]: - x[20] + r[20] <= 0
 mccormick2[21]: - x[21] + r[21] <= 0
 mccormick2[22]: - x[22] + r[22] <= 0
 mccormick2[23]: - x[23] + r[23] <= 0
 mccormick2[24]: - x[24] + r[24] <= 0
 mccormick2[25]: - x[25] + r[25] <= 0
 mccormick2[26]: - x[26] + r[26] <= 0
 mccormick2[27]: - x[27] + r[27] <= 0
 mccormick2[28]: - x[28] + r[28] <= 0
 mccormick2[29]: - x[29] + r[29] <= 0
 mccormick2[30]: - x[30] + r[30] <= 0
 mccormick2[31]: - x[31] + r[31] <= 0
 mccormick2[32]: - x[32] + r[32] <= 0
 mccormick2[33]: - x[33] + r[33] <= 0
 mccormick2[34]: - x[34] + r[34] <= 0
 mccormick2[35]: - x[35] + r[35] <= 0
 mccormick2[36]: - x[36] + r[36] <= 0
 mccormick2[37]: - x[37] + r[37] <= 0
 mccormick2[38]: - x[38] + r[38] <= 0
 mccormick2[39]: - x[39] + r[39] <= 0
 mccormick2[40]: - x[40] + r[40] <= 0
 mccormick2[41]: - x[41] + r[41] <= 0
 mccormick2[42]: - x[42] + r[42] <= 0
 mccormick2[43]: - x[43] + r[43] <= 0
 mccormick2[44]: - x[44] + r[44] <= 0
 mccormick2[45]: - x[45] + r[45] <= 0
 mccormick2[46]: - x[46] + r[46] <= 0
 mccormick2[47]: - x[47] + r[47] <= 0
 mccormick2[48]: - x[48] + r[48] <= 0
 mccormick2[49]: - x[49] + r[49] <= 0
 mccormick2[50]: - x[50] + r[50] <= 0
 mccormick2[51]: - x[51] + r[51] <= 0
 mccormick2[52]: - x[52] + r[52] <= 0
 mccormick2[53]: - x[53] + r[53] <= 0
 mccormick2[54]: - x[54] + r[54] <= 0
 mccormick2[55]: - x[55] + r[55] <= 0
 mccormick2[56]: - x[56] + r[56] <= 0
 mccormick2[57]: - x[57] + r[57] <= 0
 mccormick2[58]: - x[58] + r[58] <= 0
 mccormick2[59]: - x[59] + r[59] <= 0
 mccormick2[60]: - x[60] + r[60] <= 0
 mccormick2[61]: - x[61] + r[61] <= 0
 mccormick2[62]: - x[62] + r[62] <= 0
 mccormick2[63]: - x[63] + r[63] <= 0
 mccormick2[64]: - x[64] + r[64] <= 0
 mccormick2[65]: - x[65] + r[65] <= 0
 mccormick2[66]: - x[66] + r[66] <= 0
 mccormick2[67]: - x[67] + r[67] <= 0
 mccormick2[68]: - x[68] + r[68] <= 0
 mccormick2[69]: - x[69] + r[69] <= 0
 mccormick2[70]: - x[70] + r[70] <= 0
 mccormick2[71]: - x[71] + r[71] <= 0
 mccormick2[72]: - x[72] + r[72] <= 0
 mccormick2[73]: - x[73] + r[73] <= 0
 mccormick2[74]: - x[74] + r[74] <= 0
 mccormick2[75]: - x[75] + r[75] <= 0
 mccormick2[76]: - x[76] + r[76] <= 0
 mccormick2[77]: - x[77] + r[77] <= 0
 mccormick2[78]: - x[78] + r[78] <= 0
 mccormick2[79]: - x[79] + r[79] <= 0
 mccormick3[0]: x[0] + u[0] - r[0] <= 1
 mccormick3[1]: x[1] + u[1] - r[1] <= 1
 mccormick3[2]: x[2] + u[2] - r[2] <= 1
 mccormick3[3]: x[3] + u[3] - r[3] <= 1
 mccormick3[4]: x[4] + u[4] - r[4] <= 1
 mccormick3[5]: x[5] + u[5] - r[5] <= 1
 mccormick3[6]: x[6] + u[6] - r[6] <= 1
 mccormick3[7]: x[7] + u[7] - r[7] <= 1
 mccormick3[8]: x[8] + u[8] - r[8] <= 1
 mccormick3[9]: x[9] + u[9] - r[9] <= 1
 mccormick3[10]: x[10] + u[10] - r[10] <= 1
 mccormick3[11]: x[11] + u[11] - r[11] <= 1
 mccormick3[12]: x[12] + u[12] - r[12] <= 1
 mccormick3[13]: x[13] + u[13] - r[13] <= 1
 mccormick3[14]: x[14] + u[14] - r[14] <= 1
 mccormick3[15]: x[15] + u[15] - r[15] <= 1
 mccormick3[16]: x[16] + u[16] - r[16] <= 1
 mccormick3[17]: x[17] + u[17] - r[17] <= 1
 mccormick3[18]: x[18] + u[18] - r[18] <= 1
 mccormick3[19]: x[19] + u[19] - r[19] <= 1
 mccormick3[20]: x[20] + u[20] - r[20] <= 1
 mccormick3[21]: x[21] + u[21] - r[21] <= 1
 mccormick3[22]: x[22] + u[22] - r[22] <= 1
 mccormick3[23]: x[23] + u[23] - r[23] <= 1
 mccormick3[24]: x[24] + u[24] - r[24] <= 1
 mccormick3[25]: x[25] + u[25] - r[25] <= 1
 mccormick3[26]: x[26] + u[26] - r[26] <= 1
 mccormick3[27]: x[27] + u[27] - r[27] <= 1
 mccormick3[28]: x[28] + u[28] - r[28] <= 1
 mccormick3[29]: x[29] + u[29] - r[29] <= 1
 mccormick3[30]: x[30] + u[30] - r[30] <= 1
 mccormick3[31]: x[31] + u[31] - r[31] <= 1
 mccormick3[32]: x[32] + u[32] - r[32] <= 1
 mccormick3[33]: x[33] + u[33] - r[33] <= 1
 mccormick3[34]: x[34] + u[34] - r[34] <= 1
 mccormick3[35]: x[35] + u[35] - r[35] <= 1
 mccormick3[36]: x[36] + u[36] - r[36] <= 1
 mccormick3[37]: x[37] + u[37] - r[37] <= 1
 mccormick3[38]: x[38] + u[38] - r[38] <= 1
 mccormick3[39]: x[39] + u[39] - r[39] <= 1
 mccormick3[40]: x[40] + u[40] - r[40] <= 1
 mccormick3[41]: x[41] + u[41] - r[41] <= 1
 mccormick3[42]: x[42] + u[42] - r[42] <= 1
 mccormick3[43]: x[43] + u[43] - r[43] <= 1
 mccormick3[44]: x[44] + u[44] - r[44] <= 1
 mccormick3[45]: x[45] + u[45] - r[45] <= 1
 mccormick3[46]: x[46] + u[46] - r[46] <= 1
 mccormick3[47]: x[47] + u[47] - r[47] <= 1
 mccormick3[48]: x[48] + u[48] - r[48] <= 1
 mccormick3[49]: x[49] + u[49] - r[49] <= 1
 mccormick3[50]: x[50] + u[50] - r[50] <= 1
 mccormick3[51]: x[51] + u[51] - r[51] <= 1
 mccormick3[52]: x[52] + u[52] - r[52] <= 1
 mccormick3[53]: x[53] + u[53] - r[53] <= 1
 mccormick3[54]: x[54] + u[54] - r[54] <= 1
 mccormick3[55]: x[55] + u[55] - r[55] <= 1
 mccormick3[56]: x[56] + u[56] - r[56] <= 1
 mccormick3[57]: x[57] + u[57] - r[57] <= 1
 mccormick3[58]: x[58] + u[58] - r[58] <= 1
 mccormick3[59]: x[59] + u[59] - r[59] <= 1
 mccormick3[60]: x[60] + u[60] - r[60] <= 1
 mccormick3[61]: x[61] + u[61] - r[61] <= 1
 mccormick3[62]: x[62] + u[62] - r[62] <= 1
 mccormick3[63]: x[63] + u[63] - r[63] <= 1
 mccormick3[64]: x[64] + u[64] - r[64] <= 1
 mccormick3[65]: x[65] + u[65] - r[65] <= 1
 mccormick3[66]: x[66] + u[66] - r[66] <= 1
 mccormick3[67]: x[67] + u[67] - r[67] <= 1
 mccormick3[68]: x[68] + u[68] - r[68] <= 1
 mccormick3[69]: x[69] + u[69] - r[69] <= 1
 mccormick3[70]: x[70] + u[70] - r[70] <= 1
 mccormick3[71]: x[71] + u[71] - r[71] <= 1
 mccormick3[72]: x[72] + u[72] - r[72] <= 1
 mccormick3[73]: x[73] + u[73] - r[73] <= 1
 mccormick3[74]: x[74] + u[74] - r[74] <= 1
 mccormick3[75]: x[75] + u[75] - r[75] <= 1
 mccormick3[76]: x[76] + u[76] - r[76] <= 1
 mccormick3[77]: x[77] + u[77] - r[77] <= 1
 mccormick3[78]: x[78] + u[78] - r[78] <= 1
 mccormick3[79]: x[79] + u[79] - r[79] <= 1
Bounds
Binaries
 x[0] x[1] x[2] x[3] x[4] x[5] x[6] x[7] x[8] x[9] x[10] x[11] x[12] x[13]
 x[14] x[15] x[16] x[17] x[18] x[19] x[20] x[21] x[22] x[23] x[24] x[25]
 x[26] x[27] x[28] x[29] x[30] x[31] x[32] x[33] x[34] x[35] x[36] x[37]
 x[38] x[39] x[40] x[41] x[42] x[43] x[44] x[45] x[46] x[47] x[48] x[49]
 x[50] x[51] x[52] x[53] x[54] x[55] x[56] x[57] x[58] x[59] x[60] x[61]
 x[62] x[63] x[64] x[65] x[66] x[67] x[68] x[69] x[70] x[71] x[72] x[73]
 x[74] x[75] x[76] x[77] x[78] x[79] u[0] u[1] u[2] u[3] u[4] u[5] u[6]
 u[7] u[8] u[9] u[10] u[11] u[12] u[13] u[14] u[15] u[16] u[17] u[18] u[19]
 u[20] u[21] u[22] u[23] u[24] u[25] u[26] u[27] u[28] u[29] u[30] u[31]
 u[32] u[33] u[34] u[35] u[36] u[37] u[38] u[39] u[40] u[41] u[42] u[43]
 u[44] u[45] u[46] u[47] u[48] u[49] u[50] u[51] u[52] u[53] u[54] u[55]
 u[56] u[57] u[58] u[59] u[60] u[61] u[62] u[63] u[64] u[65] u[66] u[67]
 u[68] u[69] u[70] u[71] u[72] u[73] u[74] u[75] u[76] u[77] u[78] u[79]
 r[0] r[1] r[2] r[3] r[4] r[5] r[6] r[7] r[8] r[9] r[10] r[11] r[12] r[13]
 r[14] r[15] r[16] r[17] r[18] r[19] r[20] r[21] r[22] r[23] r[24] r[25]
 r[26] r[27] r[28] r[29] r[30] r[31] r[32] r[33] r[34] r[35] r[36] r[37]
 r[38] r[39] r[40] r[41] r[42] r[43] r[44] r[45] r[46] r[47] r[48] r[49]
 r[50] r[51] r[52] r[53] r[54] r[55] r[56] r[57] r[58] r[59] r[60] r[61]
 r[62] r[63] r[64] r[65] r[66] r[67] r[68] r[69] r[70] r[71] r[72] r[73]
 r[74] r[75] r[76] r[77] r[78] r[79]
End
