instances/knapsack/discrete_knapsack_uncertainty/knapsack_80_8.kp
50280
80
372

43 4.3 1
11 1.1 90
9 0.9 3
2 0.2 87
71 7.1 97
89 8.9 80
88 8.8 53
35 3.5 71
40 4.0 66
73 7.3 90
63 6.3 50
78 7.8 62
91 9.1 34
15 1.5 25
100 10.0 38
52 5.2 71
52 5.2 17
27 2.7 33
20 2.0 14
9 0.9 25
32 3.2 29
59 5.9 86
71 7.1 71
30 3.0 47
4 0.4 44
43 4.3 22
65 6.5 15
3 0.3 83
33 3.3 61
50 5.0 48
37 3.7 72
3 0.3 71
75 7.5 7
40 4.0 2
3 0.3 39
48 4.8 92
19 1.9 72
60 6.0 54
87 8.7 90
66 6.6 27
78 7.8 71
57 5.7 21
61 6.1 37
25 2.5 34
6 0.6 98
38 3.8 90
25 2.5 32
77 7.7 32
98 9.8 16
59 5.9 65
22 2.2 62
47 4.7 58
68 6.8 10
39 3.9 28
68 6.8 55
71 7.1 53
20 2.0 98
98 9.8 63
75 7.5 43
85 8.5 6
8 0.8 39
26 2.6 57
19 1.9 53
82 8.2 89
43 4.3 30
27 2.7 92
48 4.8 16
90 9.0 25
39 3.9 72
17 1.7 65
93 9.3 100
57 5.7 50
93 9.3 64
62 6.2 97
7 0.7 94
100 10.0 97
10 1.0 45
94 9.4 60
8 0.8 7
78 7.8 79

43408
386

[3.765976417997937 3.3866547622588667 1.1837982660633986 1.3286238006861015 3.2052387315965962 3.6213274015250945 2.8717269302664747 3.37380054269572 3.1308633685263305 4.500660365427435 1.8465790216362492 3.704657612811015 1.8321374262466303 1.2881120238862553 1.9269242069986598 4.069786893849472 3.305797148579141 1.9724454425083642 3.411944778011507 4.732713933485608 4.355201318756906 4.519097040515486 3.9080324393143573 1.8259624610034686 1.676518891630653 3.184981988775908 2.057814672772735 0.6663739743373817 0.32006753959510154 3.7364455835326567 1.475549598145532 3.390480178453431 2.6214546640528154 4.2253516996140235 3.162431682262793 4.01863968090038 0.9267016749813805 0.6659337523372381 1.2640511908580392 2.8146723416862627 1.502294315576871 4.797324112773861 4.279104371282812 4.225938052145776 0.39526884178974375 3.6638476909256523 2.779674387811106 3.3981964741569963 1.6127624426995815 1.0432754149548136 0.47334813450744534 0.03052581227935056 3.947711576625805 2.215379172413581 0.3978667077019005 1.1196525835823659 0.5315376138527939 1.915006342682321 1.9845628961282058 3.1181652719645565 2.892595239882089 1.7826643482440303 2.1251583261806384 1.8747859180220712 0.3308329767155234 4.204666135807159 3.1057954067502167 1.515181832695206 1.6399400355850786 0.5981610788784358 4.449924210498595 2.0708807727759146 0.17199528402673905 0.18012583509683697 4.729697636426838 1.9862074541870365 2.1222353662291615 4.003680496372759 4.548415409566774 3.3538997708243414]

[11 95 81 26 31 5 4 15 52 77 79 38 83 79 80 24 60 31 4 21 36 67 15 6 60 59 61 99 25 82 13 43 63 64 63 24 11 48 71 82 10 77 97 5 66 14 33 13 98 31 42 67 92 39 56 15 64 42 59 93 60 38 79 2 31 51 76 70 47 33 97 97 69 10 75 72 62 30 76 82]
